SCIP Status        : solving was interrupted [time limit reached]
Total Time         :    3600.00
  solving          :    3600.00
  presolving       :       0.06 (included in solving)
  reading          :       0.00
  copying          :       0.03 (11 #copies) (minimal 0.00, maximal 0.00, average 0.00)
Original Problem   :
  Problem name     : beuster
  Variables        : 158 (52 binary, 0 integer, 0 implicit integer, 106 continuous)
  Constraints      : 114 initial, 114 maximal
  Objective        : minimize, 7 non-zeros (abs.min = 1, abs.max = 1)
Presolved Problem  :
  Problem name     : t_beuster
  Variables        : 255 (50 binary, 0 integer, 14 implicit integer, 191 continuous)
  Constraints      : 83 initial, 84 maximal
  Objective        : minimize, 7 non-zeros (abs.min = 1, abs.max = 1261.76)
  Nonzeros         : 300 constraint, 2 clique table
Presolvers         :   ExecTime  SetupTime  Calls  FixedVars   AggrVars   ChgTypes  ChgBounds   AddHoles    DelCons    AddCons   ChgSides   ChgCoefs
  boundshift       :       0.00       0.00      0          0          0          0          0          0          0          0          0          0
  convertinttobin  :       0.00       0.00      0          0          0          0          0          0          0          0          0          0
  domcol           :       0.00       0.00      3          0          0          0          0          0          0          0          0          0
  dualagg          :       0.00       0.00      0          0          0          0          0          0          0          0          0          0
  dualcomp         :       0.00       0.00      3          0          0          0          0          0          0          0          0          0
  dualinfer        :       0.00       0.00      0          0          0          0          0          0          0          0          0          0
  dualsparsify     :       0.00       0.00      1          0          0          0          0          0          0          0          0          0
  gateextraction   :       0.00       0.00      0          0          0          0          0          0          0          0          0          0
  implics          :       0.00       0.00      9          0          0          0          0          0          0          0          0          0
  inttobinary      :       0.00       0.00      0          0          0          0          0          0          0          0          0          0
  qpkktref         :       0.00       0.00      0          0          0          0          0          0          0          0          0          0
  redvub           :       0.00       0.00      0          0          0          0          0          0          0          0          0          0
  sparsify         :       0.00       0.00      1          0          0          0          0          0          0          0          0          0
  stuffing         :       0.00       0.00      0          0          0          0          0          0          0          0          0          0
  trivial          :       0.00       0.00     16          1          0          0          0          0          0          0          0          0
  tworowbnd        :       0.00       0.00      0          0          0          0          0          0          0          0          0          0
  dualfix          :       0.00       0.00     16          0          0          0          0          0          0          0          0          0
  genvbounds       :       0.00       0.00      0          0          0          0          0          0          0          0          0          0
  probing          :       0.03       0.00      3          1          0          0          6          0          0          0          0          0
  pseudoobj        :       0.00       0.00      0          0          0          0          0          0          0          0          0          0
  symmetry         :       0.00       0.00      1          0          0          0          0          0          0          0          0          0
  vbounds          :       0.00       0.00      1          0          0          0          0          0          0          0          0          0
  varbound         :       0.00       0.00     17          0          0          0          0          0         16          0          0          0
  setppc           :       0.00       0.00     22          0          0          0          0          0          1          0          0          0
  linear           :       0.00       0.00     23          3         34          0         77          0         46         32          8          0
  nonlinear        :       0.03       0.00     28          0          0          0        397          0          0        -32          0          0
  benders          :       0.00       0.00      0          0          0          0          0          0          0          0          0          0
  components       :       0.00       0.00      1          0          0          0          0          0          0          0          0          0
  root node        :          -          -      -          1          -          -        103          -          -          -          -          -
Constraints        :     Number  MaxNumber  #Separate #Propagate    #EnfoLP    #EnfoRelax  #EnfoPS    #Check   #ResProp    Cutoffs    DomReds       Cuts    Applied      Conss   Children
  benderslp        :          0          0          0          0       8561          0         37       2941          0          0          0          0          0          0          0
  integral         :          0          0          0          0       8561          0          0       2941          0          0       1563          0          0          0       2560
  varbound         :         12         12         22      23333          0          0         37       2936          0          0          9          0          0          0          0
  setppc           :          1          1         22        992          0          0         24       2936          0          0          2          0          0          0          0
  linear           :         26+        27         22      23343          0          0         15       2936          0         15      19867          0          0          0          0
  nonlinear        :         44         44      17079      23328       7102          0         37       2802          0        431     207908     122215      90590          0       4230
  benders          :          0          0          0          0          0          0         37          4          0          0          0          0          0          0          0
  countsols        :          0          0          0          0          0          0         37          4          0          0          0          0          0          0          0
  components       :          0          0          0          0          0          0          0          0          0          0          0          0          0          0          0
Constraint Timings :  TotalTime  SetupTime   Separate  Propagate     EnfoLP     EnfoPS     EnfoRelax   Check    ResProp    SB-Prop
  benderslp        :       0.00       0.00       0.00       0.00       0.00       0.00       0.00       0.00       0.00       0.00
  integral         :       1.36       0.00       0.00       0.00       1.36       0.00       0.00       0.00       0.00       0.00
  varbound         :       0.01       0.00       0.00       0.01       0.00       0.00       0.00       0.00       0.00       0.00
  setppc           :       0.00       0.00       0.00       0.00       0.00       0.00       0.00       0.00       0.00       0.00
  linear           :       0.10       0.00       0.00       0.08       0.00       0.00       0.00       0.00       0.00       0.02
  nonlinear        :      13.15       0.00       8.23       1.49       3.17       0.00       0.00       0.08       0.00       0.18
  benders          :       0.00       0.00       0.00       0.00       0.00       0.00       0.00       0.00       0.00       0.00
  countsols        :       0.00       0.00       0.00       0.00       0.00       0.00       0.00       0.00       0.00       0.00
  components       :       0.00       0.00       0.00       0.00       0.00       0.00       0.00       0.00       0.00       0.00
Propagators        : #Propagate   #ResProp    Cutoffs    DomReds
  dualfix          :          1          0          0          0
  genvbounds       :          0          0          0          0
  nlobbt           :          0          0          0          0
  obbt             :          0          0          0          0
  probing          :          0          0          0          0
  pseudoobj        :      24264          0          0       3400
  redcost          :      32893          0          0       1857
  rootredcost      :          0          0          0          0
  symmetry         :          0          0          0          0
  vbounds          :       4073          0          0          6
Propagator Timings :  TotalTime  SetupTime   Presolve  Propagate    ResProp    SB-Prop
  dualfix          :       0.00       0.00       0.00       0.00       0.00       0.00
  genvbounds       :       0.01       0.00       0.00       0.01       0.00       0.00
  nlobbt           :       0.00       0.00       0.00       0.00       0.00       0.00
  obbt             :       0.00       0.00       0.00       0.00       0.00       0.00
  probing          :       0.03       0.00       0.03       0.00       0.00       0.00
  pseudoobj        :       0.03       0.00       0.00       0.03       0.00       0.00
  redcost          :       0.09       0.00       0.00       0.09       0.00       0.00
  rootredcost      :       0.00       0.00       0.00       0.00       0.00       0.00
  symmetry         :       0.00       0.00       0.00       0.00       0.00       0.00
  vbounds          :       0.01       0.00       0.00       0.01       0.00       0.00
Conflict Analysis  :       Time      Calls    Success    DomReds  Conflicts   Literals    Reconvs ReconvLits   Dualrays   Nonzeros   LP Iters   (pool size: [--,--])
  propagation      :       0.00          0          0          -          0        0.0          0        0.0          -          -          -
  infeasible LP    :       0.00        106          1          -          1        4.0          0        0.0          1        4.0          0
  bound exceed. LP :       0.01        151          0          -          0        0.0          0        0.0          0        0.0          0
  strong branching :       0.00          0          0          -          0        0.0          0        0.0          -          -          0
  pseudo solution  :       0.00          0          0          -          0        0.0          0        0.0          -          -          -
  applied globally :       0.00          -          -          0          0        0.0          -          -          1          -          -
  applied locally  :          -          -          -          0          0        0.0          -          -          0          -          -
Separators         :   ExecTime  SetupTime      Calls  RootCalls    Cutoffs    DomReds  FoundCuts ViaPoolAdd  DirectAdd    Applied ViaPoolApp  DirectApp      Conss
  cut pool         :       0.00          -       1653         43          -          -        315        294          -          -          -          -          -    (maximal pool size:        283)
  aggregation      :       0.14       0.00         33         22          0          0        221        192         16         37         34          3          0
  > cmir           :          -          -          -          -          -          -          -        129         12         20         17          3          -
  > flowcover      :          -          -          -          -          -          -          -         49          4          8          8          0          -
  > knapsackcover  :          -          -          -          -          -          -          -         14          0          9          9          0          -
  cgmip            :       0.00       0.00          0          0          0          0          0          0          0          0          0          0          0
  clique           :       0.00       0.00         22         22          0          0          0          0          0          0          0          0          0
  closecuts        :       0.00       0.00          0          0          0          0          0          0          0          0          0          0          0
  convexproj       :       0.00       0.00          0          0          0          0          0          0          0          0          0          0          0
  disjunctive      :       0.00       0.00          0          0          0          0          0          0          0          0          0          0          0
  eccuts           :       0.00       0.00          0          0          0          0          0          0          0          0          0          0          0
  gauge            :       0.00       0.00          0          0          0          0          0          0          0          0          0          0          0
  gomory           :       0.00       0.00         21         10          0          0         44         56          5          1          0          1          0
  > gomorymi       :          -          -          -          -          -          -          -         47          5          1          0          1          -
  > strongcg       :          -          -          -          -          -          -          -          9          0          0          0          0          -
  impliedbounds    :       0.00       0.00         33         22          0          0         41         34          0         12         12          0          0
  interminor       :       0.00       0.00          0          0          0          0          0          0          0          0          0          0          0
  intobj           :       0.00       0.00          0          0          0          0          0          0          0          0          0          0          0
  mcf              :       0.00       0.00          1          1          0          0          0          0          0          0          0          0          0
  minor            :       0.00       0.00          0          0          0          0          0          0          0          0          0          0          0
  mixing           :       0.00       0.00         41         22          0          0         18          8          0          0          0          0          0
  oddcycle         :       0.00       0.00          0          0          0          0          0          0          0          0          0          0          0
  rapidlearning    :       0.00       0.00          0          0          0          0          0          0          0          0          0          0          0
  rlt              :       0.00       0.00         10         10          0          0          2          0          0          0          0          0          0
  zerohalf         :       0.00       0.00         31         20          0          0         11          4          1          0          0          0          0
Cutselectors       :   ExecTime  SetupTime      Calls  RootCalls   Selected     Forced   Filtered  RootSelec   RootForc   RootFilt 
  hybrid           :       0.06       0.00      15506         22      85472          1      25902        154          0        254
Pricers            :   ExecTime  SetupTime      Calls       Vars
  problem variables:       0.00          -          0          0
Branching Rules    :   ExecTime  SetupTime   BranchLP  BranchExt   BranchPS    Cutoffs    DomReds       Cuts      Conss   Children
  allfullstrong    :       0.00       0.00          0          0          0          0          0          0          0          0
  cloud            :       0.00       0.00          0          0          0          0          0          0          0          0
  distribution     :       0.00       0.00          0          0          0          0          0          0          0          0
  fullstrong       :       0.00       0.00          0          0          0          0          0          0          0          0
  inference        :       0.00       0.00          0          0          4          0          0          0          0          8
  leastinf         :       0.00       0.00          0          0          0          0          0          0          0          0
  lookahead        :       0.00       0.00          0          0          0          0          0          0          0          0
  mostinf          :       0.00       0.00          0          0          0          0          0          0          0          0
  multaggr         :       0.00       0.00          0          0          0          0          0          0          0          0
  nodereopt        :       0.00       0.00          0          0          0          0          0          0          0          0
  pscost           :       0.00       0.00          0         37          0          0          0          0          0         74
  random           :       0.00       0.00          0          0          0          0          0          0          0          0
  relpscost        :       1.36       0.00       1455          0          0          0       1563          0          0       2552
  vanillafullstrong:       0.00       0.00          0          0          0          0          0          0          0          0
Primal Heuristics  :   ExecTime  SetupTime      Calls      Found       Best
  LP solutions     :       0.00          -          -          0          0
  relax solutions  :       0.00          -          -          0          0
  pseudo solutions :       0.00          -          -          0          0
  strong branching :       0.02          -          -          0          0
  actconsdiving    :       0.00       0.00          0          0          0
  adaptivediving   :       0.09       0.00        219          0          0
  alns             :       3.41       0.00          5          1          1
  bound            :       0.00       0.00          0          0          0
  clique           :       0.00       0.00          1          0          0
  coefdiving       :       0.00       0.00          0          0          0
  completesol      :       0.00       0.00          0          0          0
  conflictdiving   :       0.02       0.00        151          0          0
  crossover        :       2.82       0.00          1          0          0
  dins             :       0.00       0.00          0          0          0
  distributiondivin:       0.27       0.00         61          0          0
  dps              :       0.00       0.00          0          0          0
  dualval          :       0.00       0.00          0          0          0
  farkasdiving     :       0.00       0.00          0          0          0
  feaspump         :       0.05       0.00         21          0          0
  fixandinfer      :       0.00       0.00          0          0          0
  fracdiving       :       0.01       0.00        170          0          0
  gins             :       0.00       0.00          0          0          0
  guideddiving     :       0.01       0.00        171          0          0
  indicator        :       0.01       0.00          0          0          0
  indicatordiving  :       0.00       0.00          0          0          0
  intdiving        :       0.00       0.00          0          0          0
  intshifting      :       0.02       0.00         16          0          0
  linesearchdiving :       0.01       0.00        176          0          0
  localbranching   :       0.00       0.00          0          0          0
  locks            :       0.01       0.00          1          0          0
  lpface           :       0.00       0.00          0          0          0
  mpec             :      19.65       0.00         11          0          0
  multistart       :       0.00       0.00          0          0          0
  mutation         :       0.00       0.00          0          0          0
  nlpdiving        :       0.56       0.00          6          0          0
  objpscostdiving  :       0.13       0.00         31          0          0
  octane           :       0.00       0.00          0          0          0
  ofins            :       0.00       0.00          0          0          0
  oneopt           :       0.00       0.00          1          0          0
  padm             :       0.00       0.00          0          0          0
  proximity        :       0.00       0.00          0          0          0
  pscostdiving     :       0.24       0.00         62          0          0
  randrounding     :       0.02       0.00        133          0          0
  rens             :       0.00       0.00          0          0          0
  reoptsols        :       0.00       0.00          0          0          0
  repair           :       0.00       0.00          0          0          0
  rins             :       4.38       0.00          6          2          0
  rootsoldiving    :       0.05       0.00         31          0          0
  rounding         :       0.02       0.00       1068          0          0
  shiftandpropagate:       0.01       0.00          1          0          0
  shifting         :       0.03       0.00        267          0          0
  simplerounding   :       0.01       0.00          0          0          0
  subnlp           :       0.44       0.00          4          0          0
  trivial          :       0.00       0.00          2          0          0
  trivialnegation  :       0.00       0.00          0          0          0
  trustregion      :       0.00       0.00          0          0          0
  trysol           :       0.00       0.00          0          0          0
  twoopt           :       0.00       0.00          0          0          0
  undercover       :       0.01       0.00          1          0          0
  vbounds          :       0.00       0.00          0          0          0
  veclendiving     :       0.01       0.00        172          0          0
  zeroobj          :       0.00       0.00          0          0          0
  zirounding       :       0.01       0.00       1000          0          0
  other solutions  :          -          -          -          0          -
Expressions        :   #IntEval  IntEvalTi   #RevProp  RevPropTi    DomReds    Cutoffs  #Estimate  EstimTime  Branching  #Simplify SimplifyTi Simplified
  log              :      27664       0.01      15801       0.00          0          0          0       0.00          0         22       0.00          0
  pow              :     129694       0.03      42297       0.01      14080          0     376139       0.07      71562        222       0.00         16
  prod             :     311020       0.07     142675       0.09      34470         60     450320       6.64     128605        477       0.00        157
  sum              :     202964       0.07     167290       0.09      55995          0         48       0.00          0        626       0.00        227
  val              :          0       0.00          0       0.00          0          0          0       0.00          0          0       0.00          0
  var              :     197587       0.01          0       0.00          0          0          0       0.00          0       1339       0.00        151
  varidx           :          0       0.00          0       0.00          0          0          0       0.00          0          0       0.00          0
Nlhdlrs            :    Detects  DetectAll DetectTime   #IntEval  IntEvalTi   #RevProp  RevPropTi    DomReds    Cutoffs   #Enforce   EnfoTime       Cuts  Branching
  soc              :          0          0       0.00          0       0.00          0       0.00          0          0          0       0.00          0          0
  convex           :          4          4       0.00          0       0.00          0       0.00          0          0       5255       0.01       5247          0
  concave          :          4          4       0.00          0       0.00          0       0.00          0          0      29567       0.07        742          0
  signomial        :         16         16       0.00          0       0.00          0       0.00          0          0     557975       0.36       3581          0
  quotient         :         12         12       0.00          0       0.00          0       0.00          0          0     185001       0.19      11092          0
  quadratic        :         18        520       0.00      84979       0.12      82936       0.23      32451         76          0       0.00          0          0
  default          :        208       5205       0.00     669471       0.23     368430       0.48     104545        202     826427       7.79     101553          0
  bilinear         :         30         30       0.00     180654       0.01     112020       0.01          0          0     362576       0.04          0          0
  perspective      :          0          0       0.00          0       0.00          0       0.00          0          0          0       0.00          0          0
LP                 :       Time      Calls Iterations  Iter/call   Iter/sec  Time-0-It Calls-0-It    ItLimit
  primal LP        :    3532.56       3141   60795329 60795329.00   17210.01       2.30       3140
  dual LP          :      16.95      24617     194115       8.62   11449.33       0.57       2092
  lex dual LP      :       0.00          0          0       0.00          -
  barrier LP       :       0.00          0          0       0.00          -       0.00          0
  resolve instable :       0.00          0          0       0.00          -
  diving/probing LP:       0.84        753       4396       5.84    5206.45
  strong branching :       0.70        586       5037       8.60    7214.84          -          -        104
    (at root node) :          -          0          0       0.00          -
  conflict analysis:       0.00          0          0       0.00          -
NLP relaxation     :
  solve time       :       0.56 (6 calls)
  convexity        :  nonconvex (31 linear rows, 0 convex ineq., 0 nonconvex ineq., 44 nonlinear eq. or two-sided ineq.)
NLP Solvers        :  #Problems  ProblemTi    #Solves  SolveTime      #Iter  Time/Iter      #Okay #TimeLimit #IterLimit #LObjLimit #Interrupt  #NumError #EvalError  #OutOfMem #LicenseEr #OtherTerm   #GlobOpt    #LocOpt  #Feasible #LocInfeas #GlobInfea #Unbounded   #Unknown
  ipopt            :         13       0.06         31      20.60       6984       0.00         24          0          3          0          0          1          3          0          0          0          0          0          0         18          0          0         13
B&B Tree           :
  number of runs   :          1
  nodes            :       4091 (3432 internal, 659 leaves)
  feasible leaves  :          0
  infeas. leaves   :        514
  objective leaves :        144
  nodes (total)    :       4091 (3432 internal, 659 leaves)
  nodes left       :       2765
  max depth        :         41
  max depth (total):         41
  backtracks       :        629 (15.4%)
  early backtracks :          0 (0.0%)
  nodes exc. ref.  :          0 (0.0%)
  delayed cutoffs  :          0
  repropagations   :          1 (0 domain reductions, 0 cutoffs)
  avg switch length:       3.74
  switching time   :    3532.70
Root Node          :
  First LP value   : +8.21110494499473e+03
  First LP Iters   :         61 (45590.43 Iter/sec)
  First LP Time    :       0.00
  Final Dual Bound : +1.11900432137412e+04
  Final Root Iters :        511
  Root LP Estimate :                     -
Solution           :
  Solutions found  :          3 (1 improvements)
  First Solution   : +1.20729035195020e+05   (in run 1, after 42 nodes, 20.24 seconds, depth 20, found by <alns>)
  Gap First Sol.   :     978.90 %
  Gap Last Sol.    :     978.90 %
  Primal Bound     : +1.20729035195020e+05   (in run 1, after 42 nodes, 20.24 seconds, depth 20, found by <alns>)
  Dual Bound       : +3.66687242767849e+04
  Gap              :     229.24 %
Integrals          :      Total       Avg%
  primal-dual      :  251667.36      69.91
  primal-ref       :          -          - (not evaluated)
  dual-ref         :          -          - (not evaluated)
